Version identifier: 20.1.0.0 | 2020-11-10 | 9bedb6d68
Tried aggregator 2 times.
MIP Presolve eliminated 918 rows and 458 columns.
MIP Presolve modified 2382 coefficients.
Aggregator did 116 substitutions.
Reduced MIP has 1375 rows, 1091 columns, and 4513 nonzeros.
Reduced MIP has 228 binaries, 863 generals, 0 SOSs, and 0 indicators.
Presolve time = 0.01 sec. (5.58 ticks)
Found incumbent of value 1732.000000 after 0.03 sec. (11.18 ticks)
Probing fixed 30 vars, tightened 329 bounds.
Probing time = 0.00 sec. (0.85 ticks)
Tried aggregator 2 times.
Detecting symmetries...
MIP Presolve eliminated 585 rows and 58 columns.
MIP Presolve modified 149 coefficients.
Aggregator did 20 substitutions.
Reduced MIP has 770 rows, 1013 columns, and 2518 nonzeros.
Reduced MIP has 336 binaries, 677 generals, 0 SOSs, and 0 indicators.
Presolve time = 0.01 sec. (3.65 ticks)
Probing time = 0.00 sec. (0.22 ticks)
Clique table members: 35.
MIP emphasis: balance optimality and feasibility.
MIP search method: dynamic search.
Parallel mode: deterministic, using up to 24 threads.
Root relaxation solution time = 0.01 sec. (1.82 ticks)

        Nodes                                         Cuts/
   Node  Left     Objective  IInf  Best Integer    Best Bound    ItCnt     Gap

*     0+    0                         1732.0000        0.0000           100.00%
*     0+    0                           46.0000        0.0000           100.00%
      0     0        0.0000    38       46.0000        0.0000      225  100.00%
*     0+    0                           16.0000        0.0000           100.00%
      0     0        0.0000    62       16.0000      Cuts: 42      299  100.00%
      0     0        0.0000    55       16.0000      Cuts: 65      366  100.00%
      0     0        0.0000    37       16.0000      Cuts: 54      387  100.00%
      0     0        0.0000    42       16.0000      Cuts: 21      408  100.00%
*     0+    0                           13.0000        0.0000           100.00%
*     0+    0                           12.0000        0.0000           100.00%
*     0+    0                           10.0000        0.0000           100.00%
      0     0        cutoff             10.0000       10.0000      408    0.00%
Elapsed time = 0.82 sec. (86.90 ticks, tree = 0.01 MB, solutions = 6)

Cover cuts applied:  1
Implied bound cuts applied:  10
Flow cuts applied:  1
Mixed integer rounding cuts applied:  4
Zero-half cuts applied:  31
Lift and project cuts applied:  1
Gomory fractional cuts applied:  3

Root node processing (before b&c):
  Real time             =    0.82 sec. (87.02 ticks)
Parallel b&c, 24 threads:
  Real time             =    0.00 sec. (0.00 ticks)
  Sync time (average)   =    0.00 sec.
  Wait time (average)   =    0.00 sec.
                          ------------
Total (root+branch&cut) =    0.82 sec. (87.02 ticks)

Solution status = Optimal
Solution LB = 10
Solution UB = 10
Runtime = 0.826307 seconds
	Command being timed: "/home/min/git_repos/CS598MEBProject/CNT-ILP/build/cnt -s 2 ./output/k8_n15/simC_c1_k8_n15_u1_s1_del02.input-left.cnp"
	User time (seconds): 13.14
	System time (seconds): 0.07
	Percent of CPU this job got: 1531%
	Elapsed (wall clock) time (h:mm:ss or m:ss): 0:00.86
	Average shared text size (kbytes): 0
	Average unshared data size (kbytes): 0
	Average stack size (kbytes): 0
	Average total size (kbytes): 0
	Maximum resident set size (kbytes): 79768
	Average resident set size (kbytes): 0
	Major (requiring I/O) page faults: 0
	Minor (reclaiming a frame) page faults: 16932
	Voluntary context switches: 5742
	Involuntary context switches: 2286
	Swaps: 0
	File system inputs: 0
	File system outputs: 24
	Socket messages sent: 0
	Socket messages received: 0
	Signals delivered: 0
	Page size (bytes): 4096
	Exit status: 0
